VALUE 2700571
1 344
5 338
1 6
8 338
9 333
5 10
13 328
9 14
17 321
13 18
21 315
17 22
25 307
21 26
29 281
31 245
32 282
34 215
34 36
37 299
37 38
40 283
45 294
47 270
49 50
50 187
54 235
55 277
38 56
37 58
60 299
64 151
66 275
73 132
81 131
81 85
88 108
90 322
108 167
131 139
132 135
135 137
137 142
139 142
142 173
151 155
155 174
167 171
171 194
173 198
49 174
187 199
194 203
198 213
199 213
203 210
210 242
31 213
215 226
226 231
231 235
235 243
242 252
243 246
47 245
246 250
32 250
252 257
253 284
253 257
55 266
270 272
272 274
45 274
266 275
56 277
274 278
278 281
282 285
29 283
40 284
285 289
289 292
292 294
294 303
40 295
295 299
25 303
26 307
22 315
321 323
321 322
18 323
14 328
10 333
6 338
8 345
10 346
14 347
18 348
22 349
26 350
29 351
32 352
34 353
36 354
37 355
40 356
45 357
47 358
50 359
54 360
56 361
58 362
60 363
64 364
66 365
73 366
81 367
85 368
88 369
90 370

